0 7953665
325 7597526
650 7474892
975 7408244
1300 7346898
1625 7302008
1950 7270717
2275 7241870
2600 7214211
2925 7186125
3250 7160398
3575 7149354
3900 7144595
4225 7143468
4550 7142871
4875 7142611
5200 7142455
5525 7142308
5850 7142217
6175 7142168
